instances/in_50_25_7_3.lp
#const n = 50.
#const k = 25.
#const h = 7.
tile(1,25,9).
tile(2,18,2).
tile(3,19,4).
tile(4,10,15).
tile(5,12,11).
tile(6,14,19).
tile(7,10,12).
tile(8,16,17).
tile(9,20,7).
tile(10,20,23).
tile(11,13,25).
tile(12,16,6).
tile(13,22,14).
tile(14,17,14).
tile(15,6,6).
tile(16,20,7).
tile(17,14,7).
tile(18,7,10).
tile(19,14,3).
tile(20,16,5).
tile(21,14,19).
tile(22,24,11).
tile(23,4,21).
tile(24,3,21).
tile(25,9,1).
tile(26,4,23).
tile(27,20,8).
tile(28,6,22).
tile(29,2,11).
tile(30,4,17).
tile(31,6,13).
tile(32,23,11).
tile(33,15,20).
tile(34,10,14).
tile(35,16,2).
tile(36,19,6).
tile(37,5,20).
tile(38,23,22).
tile(39,2,25).
tile(40,16,21).
tile(41,7,9).
tile(42,18,24).
tile(43,15,22).
tile(44,17,1).
tile(45,11,10).
tile(46,16,20).
tile(47,16,7).
tile(48,23,3).
tile(49,24,4).
tile(50,15,3).
