minizinc/input/in_50_25_7_3.dzn
n = 50;
k = 25;
h = 7;
tiles = array2d(1..n, 1..2,
[ 25,9
, 18,2
, 19,4
, 10,15
, 12,11
, 14,19
, 10,12
, 16,17
, 20,7
, 20,23
, 13,25
, 16,6
, 22,14
, 17,14
, 6,6
, 20,7
, 14,7
, 7,10
, 14,3
, 16,5
, 14,19
, 24,11
, 4,21
, 3,21
, 9,1
, 4,23
, 20,8
, 6,22
, 2,11
, 4,17
, 6,13
, 23,11
, 15,20
, 10,14
, 16,2
, 19,6
, 5,20
, 23,22
, 2,25
, 16,21
, 7,9
, 18,24
, 15,22
, 17,1
, 11,10
, 16,20
, 16,7
, 23,3
, 24,4
, 15,3
]);